# Solution for model r3_t18_m1_2
# Finished Task: 18 / 18
# Makespan: 632.0, Total Distance: 991.0, Total Time: 0.5344
# R O S F
0 0 4 0.0 0.0
1 1 8 0.0 0.0
2 2 14 0.0 0.0
3 1 16 465.0 488.0
4 0 7 195.0 231.0
5 0 10 443.0 474.0
6 2 18 366.0 401.0
7 0 15 366.0 402.0
8 1 20 163.0 198.0
9 0 -1 565.0 587.0
10 0 9 509.0 538.0
11 1 -1 599.0 632.0
12 2 17 500.0 526.0
13 1 3 401.0 440.0
14 2 19 126.0 160.0
15 0 5 411.0 432.0
16 1 11 531.0 552.0
17 2 -1 598.0 618.0
18 2 12 444.0 478.0
19 2 6 242.0 270.0
20 1 13 274.0 308.0
